(declare-const a Real)
(declare-const b Real)
(declare-const c Real)
(assert (= (* a b c) 1))
(assert (> a 0))
(assert (> b 0))
(assert (> c 0))
(assert (not (<= (+ (* -2984 (pow b 4)) (* -2152 (pow a 4)) (* 117 (pow (+ a b) 4)) (* 3456 (pow (+ (* (/ 5 12) a) (* (/ 7 12) b)) 4)) (* -4608 (pow a (pow 3 -1)) (pow b (/ 11 3))) (* -2304 (pow a (/ 10 3)) (pow b (/ 2 3))) (* 800 b (pow a 3)) (* 5920 a (pow b 3))) 0)))
(check-sat)
(get-model)
(exit)